p cnf 225 1
225 0
w 1 0.68841
w 2 1 1
w 2 -1 0
w 3 2 0.885694
w 3 -2 0.880769
w 4 3 0
w 4 -3 1
w 5 4 1
w 5 -4 0
w 6 5 0.819074
w 6 -5 0.580447
w 7 6 0.244765
w 7 -6 0.832967
w 8 7 0.629767
w 8 -7 0.133359
w 9 8 1
w 9 -8 0
w 10 9 0.0802329
w 10 -9 0.36403
w 11 10 0.764846
w 11 -10 0.0385776
w 12 11 0.169724
w 12 -11 0.0151911
w 13 12 0.858134
w 13 -12 0.367943
w 14 13 0.699757
w 14 -13 0.253636
w 15 14 0.797731
w 15 -14 0.59428
w 16 1 0.664506
w 16 -1 0.382307
w 17 16 2 0.244953
w 17 16 -2 0.175466
w 17 -16 2 0.00376354
w 17 -16 -2 0.0779207
w 18 17 3 0
w 18 17 -3 1
w 18 -17 3 1
w 18 -17 -3 1
w 19 18 4 0.188841
w 19 18 -4 0.264124
w 19 -18 4 0.418518
w 19 -18 -4 0.953687
w 20 19 5 0
w 20 19 -5 1
w 20 -19 5 0
w 20 -19 -5 0
w 21 20 6 0.685835
w 21 20 -6 0.924347
w 21 -20 6 0.681302
w 21 -20 -6 0.939472
w 22 21 7 0.479034
w 22 21 -7 0.533751
w 22 -21 7 0.496516
w 22 -21 -7 0.14354
w 23 22 8 0.255514
w 23 22 -8 0.388493
w 23 -22 8 0.0915241
w 23 -22 -8 0.259278
w 24 23 9 1
w 24 23 -9 0
w 24 -23 9 1
w 24 -23 -9 0
w 25 24 10 0.391251
w 25 24 -10 0.481211
w 25 -24 10 0.0570265
w 25 -24 -10 0.809769
w 26 25 11 1
w 26 25 -11 0
w 26 -25 11 1
w 26 -25 -11 1
w 27 26 12 0
w 27 26 -12 0
w 27 -26 12 0
w 27 -26 -12 1
w 28 27 13 0
w 28 27 -13 1
w 28 -27 13 0
w 28 -27 -13 1
w 29 28 14 0.752737
w 29 28 -14 0.419814
w 29 -28 14 0.232223
w 29 -28 -14 0.844261
w 30 29 15 0.698637
w 30 29 -15 0.0280236
w 30 -29 15 0.571901
w 30 -29 -15 0.37633
w 31 16 0
w 31 -16 1
w 32 31 17 0.801605
w 32 31 -17 0.42183
w 32 -31 17 0.57735
w 32 -31 -17 0.236503
w 33 32 18 0.591325
w 33 32 -18 0.794812
w 33 -32 18 0.459179
w 33 -32 -18 0.77817
w 34 33 19 0
w 34 33 -19 1
w 34 -33 19 0
w 34 -33 -19 1
w 35 34 20 0.256012
w 35 34 -20 0.962241
w 35 -34 20 0.721446
w 35 -34 -20 0.0997423
w 36 35 21 0.141261
w 36 35 -21 0.331965
w 36 -35 21 0.559239
w 36 -35 -21 0.820353
w 37 36 22 1
w 37 36 -22 1
w 37 -36 22 0
w 37 -36 -22 0
w 38 37 23 0.174513
w 38 37 -23 0.709262
w 38 -37 23 0.178888
w 38 -37 -23 0.751863
w 39 38 24 0.960446
w 39 38 -24 0.343188
w 39 -38 24 0.740577
w 39 -38 -24 0.419625
w 40 39 25 0
w 40 39 -25 0
w 40 -39 25 0
w 40 -39 -25 1
w 41 40 26 0.887078
w 41 40 -26 0.330063
w 41 -40 26 0.289312
w 41 -40 -26 0.98682
w 42 41 27 1
w 42 41 -27 1
w 42 -41 27 0
w 42 -41 -27 0
w 43 42 28 1
w 43 42 -28 1
w 43 -42 28 1
w 43 -42 -28 0
w 44 43 29 1
w 44 43 -29 1
w 44 -43 29 0
w 44 -43 -29 0
w 45 44 30 0.539571
w 45 44 -30 0.0258835
w 45 -44 30 0.494805
w 45 -44 -30 0.959196
w 46 31 1
w 46 -31 0
w 47 46 32 0
w 47 46 -32 1
w 47 -46 32 0
w 47 -46 -32 0
w 48 47 33 1
w 48 47 -33 0
w 48 -47 33 1
w 48 -47 -33 0
w 49 48 34 1
w 49 48 -34 0
w 49 -48 34 0
w 49 -48 -34 0
w 50 49 35 0.339818
w 50 49 -35 0.499505
w 50 -49 35 0.83941
w 50 -49 -35 0.740055
w 51 50 36 1
w 51 50 -36 0
w 51 -50 36 1
w 51 -50 -36 1
w 52 51 37 0.138917
w 52 51 -37 0.896907
w 52 -51 37 0.817947
w 52 -51 -37 0.286158
w 53 52 38 1
w 53 52 -38 0
w 53 -52 38 0
w 53 -52 -38 0
w 54 53 39 0.488021
w 54 53 -39 0.185087
w 54 -53 39 0.831274
w 54 -53 -39 0.432404
w 55 54 40 0.225072
w 55 54 -40 0.981068
w 55 -54 40 0.327438
w 55 -54 -40 0.968258
w 56 55 41 0.667255
w 56 55 -41 0.467763
w 56 -55 41 0.560687
w 56 -55 -41 0.40731
w 57 56 42 0.20856
w 57 56 -42 0.726491
w 57 -56 42 0.011134
w 57 -56 -42 0.610661
w 58 57 43 0.150051
w 58 57 -43 0.507568
w 58 -57 43 0.403188
w 58 -57 -43 0.43621
w 59 58 44 0.42259
w 59 58 -44 0.880329
w 59 -58 44 0.642593
w 59 -58 -44 0.0112699
w 60 59 45 0
w 60 59 -45 1
w 60 -59 45 0
w 60 -59 -45 0
w 61 46 0.866163
w 61 -46 0.455201
w 62 61 47 0.1936
w 62 61 -47 0.423459
w 62 -61 47 0.634039
w 62 -61 -47 0.860856
w 63 62 48 0.194726
w 63 62 -48 0.268166
w 63 -62 48 0.789322
w 63 -62 -48 0.403286
w 64 63 49 0.800456
w 64 63 -49 0.013947
w 64 -63 49 0.579898
w 64 -63 -49 0.950507
w 65 64 50 0.983086
w 65 64 -50 0.386716
w 65 -64 50 0.496039
w 65 -64 -50 0.405676
w 66 65 51 1
w 66 65 -51 0
w 66 -65 51 1
w 66 -65 -51 0
w 67 66 52 0.552685
w 67 66 -52 0.767615
w 67 -66 52 0.847931
w 67 -66 -52 0.418848
w 68 67 53 0
w 68 67 -53 1
w 68 -67 53 0
w 68 -67 -53 0
w 69 68 54 1
w 69 68 -54 0
w 69 -68 54 0
w 69 -68 -54 0
w 70 69 55 0.736126
w 70 69 -55 0.127274
w 70 -69 55 0.00669165
w 70 -69 -55 0.316024
w 71 70 56 1
w 71 70 -56 0
w 71 -70 56 0
w 71 -70 -56 0
w 72 71 57 0.731543
w 72 71 -57 0.162877
w 72 -71 57 0.121733
w 72 -71 -57 0.0488656
w 73 72 58 0.0379692
w 73 72 -58 0.601551
w 73 -72 58 0.467979
w 73 -72 -58 0.8859
w 74 73 59 0
w 74 73 -59 1
w 74 -73 59 1
w 74 -73 -59 1
w 75 74 60 1
w 75 74 -60 0
w 75 -74 60 0
w 75 -74 -60 1
w 76 61 1
w 76 -61 0
w 77 76 62 0.328661
w 77 76 -62 0.630222
w 77 -76 62 0.899771
w 77 -76 -62 0.406442
w 78 77 63 0
w 78 77 -63 0
w 78 -77 63 1
w 78 -77 -63 1
w 79 78 64 0.345551
w 79 78 -64 0.0254008
w 79 -78 64 0.651349
w 79 -78 -64 0.0459144
w 80 79 65 0
w 80 79 -65 0
w 80 -79 65 1
w 80 -79 -65 0
w 81 80 66 1
w 81 80 -66 1
w 81 -80 66 1
w 81 -80 -66 0
w 82 81 67 1
w 82 81 -67 0
w 82 -81 67 0
w 82 -81 -67 1
w 83 82 68 0.443665
w 83 82 -68 0.946374
w 83 -82 68 0.52173
w 83 -82 -68 0.343436
w 84 83 69 0
w 84 83 -69 1
w 84 -83 69 0
w 84 -83 -69 0
w 85 84 70 0
w 85 84 -70 1
w 85 -84 70 1
w 85 -84 -70 1
w 86 85 71 1
w 86 85 -71 1
w 86 -85 71 1
w 86 -85 -71 0
w 87 86 72 0.0798923
w 87 86 -72 0.909934
w 87 -86 72 0.514639
w 87 -86 -72 0.717084
w 88 87 73 0.930966
w 88 87 -73 0.985061
w 88 -87 73 0.782149
w 88 -87 -73 0.548679
w 89 88 74 0.225814
w 89 88 -74 0.495053
w 89 -88 74 0.3983
w 89 -88 -74 0.569251
w 90 89 75 0.0784592
w 90 89 -75 0.111569
w 90 -89 75 0.0716252
w 90 -89 -75 0.941293
w 91 76 0.897865
w 91 -76 0.149677
w 92 91 77 0
w 92 91 -77 1
w 92 -91 77 0
w 92 -91 -77 1
w 93 92 78 1
w 93 92 -78 0
w 93 -92 78 1
w 93 -92 -78 1
w 94 93 79 0
w 94 93 -79 1
w 94 -93 79 1
w 94 -93 -79 1
w 95 94 80 0.724043
w 95 94 -80 0.139334
w 95 -94 80 0.706335
w 95 -94 -80 0.949857
w 96 95 81 0.104635
w 96 95 -81 0.519107
w 96 -95 81 0.482257
w 96 -95 -81 0.183094
w 97 96 82 0.553882
w 97 96 -82 0.124387
w 97 -96 82 0.188231
w 97 -96 -82 0.451747
w 98 97 83 1
w 98 97 -83 0
w 98 -97 83 1
w 98 -97 -83 1
w 99 98 84 0.850209
w 99 98 -84 0.828601
w 99 -98 84 0.0428694
w 99 -98 -84 0.995258
w 100 99 85 0.0625319
w 100 99 -85 0.654947
w 100 -99 85 0.800924
w 100 -99 -85 0.00442549
w 101 100 86 1
w 101 100 -86 0
w 101 -100 86 1
w 101 -100 -86 0
w 102 101 87 0.019323
w 102 101 -87 0.441658
w 102 -101 87 0.197432
w 102 -101 -87 0.50158
w 103 102 88 0.828108
w 103 102 -88 0.0554619
w 103 -102 88 0.749139
w 103 -102 -88 0.0163389
w 104 103 89 0.0232027
w 104 103 -89 0.233512
w 104 -103 89 0.334408
w 104 -103 -89 0.701243
w 105 104 90 1
w 105 104 -90 0
w 105 -104 90 0
w 105 -104 -90 0
w 106 91 0.799207
w 106 -91 0.37295
w 107 106 92 0
w 107 106 -92 0
w 107 -106 92 0
w 107 -106 -92 1
w 108 107 93 1
w 108 107 -93 1
w 108 -107 93 0
w 108 -107 -93 1
w 109 108 94 0.353097
w 109 108 -94 0.634254
w 109 -108 94 0.809708
w 109 -108 -94 0.408559
w 110 109 95 0
w 110 109 -95 1
w 110 -109 95 1
w 110 -109 -95 0
w 111 110 96 1
w 111 110 -96 0
w 111 -110 96 0
w 111 -110 -96 1
w 112 111 97 0.828142
w 112 111 -97 0.206002
w 112 -111 97 0.716138
w 112 -111 -97 0.201092
w 113 112 98 0
w 113 112 -98 1
w 113 -112 98 0
w 113 -112 -98 1
w 114 113 99 0.687113
w 114 113 -99 0.114932
w 114 -113 99 0.468479
w 114 -113 -99 0.538631
w 115 114 100 0
w 115 114 -100 0
w 115 -114 100 1
w 115 -114 -100 0
w 116 115 101 0
w 116 115 -101 1
w 116 -115 101 0
w 116 -115 -101 1
w 117 116 102 1
w 117 116 -102 0
w 117 -116 102 1
w 117 -116 -102 1
w 118 117 103 0
w 118 117 -103 0
w 118 -117 103 0
w 118 -117 -103 1
w 119 118 104 1
w 119 118 -104 1
w 119 -118 104 0
w 119 -118 -104 1
w 120 119 105 0.275968
w 120 119 -105 0.471503
w 120 -119 105 0.830697
w 120 -119 -105 0.744447
w 121 106 0
w 121 -106 1
w 122 121 107 0
w 122 121 -107 1
w 122 -121 107 0
w 122 -121 -107 1
w 123 122 108 0.540149
w 123 122 -108 0.418204
w 123 -122 108 0.40458
w 123 -122 -108 0.685543
w 124 123 109 0.0610967
w 124 123 -109 0.904881
w 124 -123 109 0.86839
w 124 -123 -109 0.376905
w 125 124 110 0
w 125 124 -110 1
w 125 -124 110 1
w 125 -124 -110 1
w 126 125 111 0.0622342
w 126 125 -111 0.285333
w 126 -125 111 0.612577
w 126 -125 -111 0.777999
w 127 126 112 0.0840795
w 127 126 -112 0.608696
w 127 -126 112 0.305749
w 127 -126 -112 0.0942132
w 128 127 113 0.500276
w 128 127 -113 0.996075
w 128 -127 113 0.277647
w 128 -127 -113 0.95459
w 129 128 114 1
w 129 128 -114 0
w 129 -128 114 1
w 129 -128 -114 0
w 130 129 115 0
w 130 129 -115 1
w 130 -129 115 0
w 130 -129 -115 0
w 131 130 116 0.126314
w 131 130 -116 0.0497402
w 131 -130 116 0.874847
w 131 -130 -116 0.0198726
w 132 131 117 0.703034
w 132 131 -117 0.0821069
w 132 -131 117 0.0287497
w 132 -131 -117 0.315611
w 133 132 118 0.590051
w 133 132 -118 0.399691
w 133 -132 118 0.468801
w 133 -132 -118 0.8958
w 134 133 119 0
w 134 133 -119 0
w 134 -133 119 0
w 134 -133 -119 1
w 135 134 120 1
w 135 134 -120 0
w 135 -134 120 1
w 135 -134 -120 0
w 136 121 0.0256868
w 136 -121 0.805495
w 137 136 122 0.11085
w 137 136 -122 0.174748
w 137 -136 122 0.557312
w 137 -136 -122 0.237164
w 138 137 123 1
w 138 137 -123 1
w 138 -137 123 0
w 138 -137 -123 1
w 139 138 124 0
w 139 138 -124 1
w 139 -138 124 0
w 139 -138 -124 1
w 140 139 125 0.668051
w 140 139 -125 0.482505
w 140 -139 125 0.344399
w 140 -139 -125 0.700679
w 141 140 126 0.834378
w 141 140 -126 0.0109543
w 141 -140 126 0.229246
w 141 -140 -126 0.522581
w 142 141 127 0
w 142 141 -127 1
w 142 -141 127 0
w 142 -141 -127 1
w 143 142 128 0.0179139
w 143 142 -128 0.211188
w 143 -142 128 0.807456
w 143 -142 -128 0.575226
w 144 143 129 1
w 144 143 -129 0
w 144 -143 129 0
w 144 -143 -129 1
w 145 144 130 1
w 145 144 -130 0
w 145 -144 130 0
w 145 -144 -130 1
w 146 145 131 0.443878
w 146 145 -131 0.911834
w 146 -145 131 0.0657147
w 146 -145 -131 0.788277
w 147 146 132 0.944295
w 147 146 -132 0.622654
w 147 -146 132 0.623467
w 147 -146 -132 0.173541
w 148 147 133 1
w 148 147 -133 0
w 148 -147 133 1
w 148 -147 -133 1
w 149 148 134 0.532893
w 149 148 -134 0.559718
w 149 -148 134 0.41261
w 149 -148 -134 0.108119
w 150 149 135 1
w 150 149 -135 0
w 150 -149 135 1
w 150 -149 -135 1
w 151 136 0
w 151 -136 1
w 152 151 137 1
w 152 151 -137 1
w 152 -151 137 0
w 152 -151 -137 1
w 153 152 138 0.0898311
w 153 152 -138 0.0836194
w 153 -152 138 0.526122
w 153 -152 -138 0.0341263
w 154 153 139 0.149588
w 154 153 -139 0.207668
w 154 -153 139 0.851509
w 154 -153 -139 0.227834
w 155 154 140 1
w 155 154 -140 0
w 155 -154 140 1
w 155 -154 -140 0
w 156 155 141 1
w 156 155 -141 1
w 156 -155 141 1
w 156 -155 -141 0
w 157 156 142 1
w 157 156 -142 1
w 157 -156 142 1
w 157 -156 -142 0
w 158 157 143 0.171586
w 158 157 -143 0.608877
w 158 -157 143 0.845404
w 158 -157 -143 0.195702
w 159 158 144 0.759013
w 159 158 -144 0.285533
w 159 -158 144 0.987839
w 159 -158 -144 0.285135
w 160 159 145 0
w 160 159 -145 1
w 160 -159 145 0
w 160 -159 -145 0
w 161 160 146 0.369577
w 161 160 -146 0.405371
w 161 -160 146 0.787576
w 161 -160 -146 0.798688
w 162 161 147 0.151683
w 162 161 -147 0.640409
w 162 -161 147 0.0649041
w 162 -161 -147 0.523859
w 163 162 148 0.564234
w 163 162 -148 0.609495
w 163 -162 148 0.657363
w 163 -162 -148 0.321646
w 164 163 149 1
w 164 163 -149 0
w 164 -163 149 1
w 164 -163 -149 1
w 165 164 150 0.0575413
w 165 164 -150 0.310183
w 165 -164 150 0.82258
w 165 -164 -150 0.342676
w 166 151 0.516693
w 166 -151 0.777399
w 167 166 152 0
w 167 166 -152 0
w 167 -166 152 1
w 167 -166 -152 1
w 168 167 153 0.927932
w 168 167 -153 0.230579
w 168 -167 153 0.526406
w 168 -167 -153 0.0796152
w 169 168 154 0.59131
w 169 168 -154 0.603475
w 169 -168 154 0.797672
w 169 -168 -154 0.155544
w 170 169 155 1
w 170 169 -155 0
w 170 -169 155 1
w 170 -169 -155 0
w 171 170 156 0
w 171 170 -156 1
w 171 -170 156 1
w 171 -170 -156 1
w 172 171 157 0.0650339
w 172 171 -157 0.36484
w 172 -171 157 0.248659
w 172 -171 -157 0.581727
w 173 172 158 1
w 173 172 -158 0
w 173 -172 158 0
w 173 -172 -158 1
w 174 173 159 0
w 174 173 -159 0
w 174 -173 159 1
w 174 -173 -159 1
w 175 174 160 0.177499
w 175 174 -160 0.54524
w 175 -174 160 0.157207
w 175 -174 -160 0.975171
w 176 175 161 0.370177
w 176 175 -161 0.430206
w 176 -175 161 0.177974
w 176 -175 -161 0.0362712
w 177 176 162 0.585686
w 177 176 -162 0.000893238
w 177 -176 162 0.0228212
w 177 -176 -162 0.828139
w 178 177 163 1
w 178 177 -163 0
w 178 -177 163 0
w 178 -177 -163 0
w 179 178 164 0
w 179 178 -164 1
w 179 -178 164 1
w 179 -178 -164 0
w 180 179 165 0.194872
w 180 179 -165 0.539855
w 180 -179 165 0.316426
w 180 -179 -165 0.501383
w 181 166 0
w 181 -166 1
w 182 181 167 0.0390254
w 182 181 -167 0.0273659
w 182 -181 167 0.654053
w 182 -181 -167 0.73981
w 183 182 168 1
w 183 182 -168 0
w 183 -182 168 1
w 183 -182 -168 1
w 184 183 169 0.434707
w 184 183 -169 0.821269
w 184 -183 169 0.331609
w 184 -183 -169 0.457764
w 185 184 170 1
w 185 184 -170 0
w 185 -184 170 0
w 185 -184 -170 1
w 186 185 171 0
w 186 185 -171 0
w 186 -185 171 1
w 186 -185 -171 0
w 187 186 172 1
w 187 186 -172 0
w 187 -186 172 1
w 187 -186 -172 1
w 188 187 173 1
w 188 187 -173 1
w 188 -187 173 1
w 188 -187 -173 0
w 189 188 174 1
w 189 188 -174 0
w 189 -188 174 0
w 189 -188 -174 0
w 190 189 175 0.971651
w 190 189 -175 0.551789
w 190 -189 175 0.0534641
w 190 -189 -175 0.429415
w 191 190 176 1
w 191 190 -176 0
w 191 -190 176 0
w 191 -190 -176 1
w 192 191 177 0.0172233
w 192 191 -177 0.796551
w 192 -191 177 0.138998
w 192 -191 -177 0.508858
w 193 192 178 0.166979
w 193 192 -178 0.31692
w 193 -192 178 0.324924
w 193 -192 -178 0.688746
w 194 193 179 0.518685
w 194 193 -179 0.249539
w 194 -193 179 0.700726
w 194 -193 -179 0.366498
w 195 194 180 0.803856
w 195 194 -180 0.298571
w 195 -194 180 0.768526
w 195 -194 -180 0.340799
w 196 181 1
w 196 -181 0
w 197 196 182 1
w 197 196 -182 0
w 197 -196 182 0
w 197 -196 -182 1
w 198 197 183 0.0169405
w 198 197 -183 0.963474
w 198 -197 183 0.80002
w 198 -197 -183 0.667811
w 199 198 184 0.596572
w 199 198 -184 0.806809
w 199 -198 184 0.489556
w 199 -198 -184 0.406618
w 200 199 185 0.806476
w 200 199 -185 0.731542
w 200 -199 185 0.662535
w 200 -199 -185 0.801616
w 201 200 186 1
w 201 200 -186 1
w 201 -200 186 0
w 201 -200 -186 0
w 202 201 187 1
w 202 201 -187 1
w 202 -201 187 1
w 202 -201 -187 0
w 203 202 188 0.959447
w 203 202 -188 0.52527
w 203 -202 188 0.264967
w 203 -202 -188 0.701312
w 204 203 189 0
w 204 203 -189 0
w 204 -203 189 0
w 204 -203 -189 1
w 205 204 190 0
w 205 204 -190 1
w 205 -204 190 0
w 205 -204 -190 1
w 206 205 191 0.166662
w 206 205 -191 0.361051
w 206 -205 191 0.621812
w 206 -205 -191 0.829197
w 207 206 192 1
w 207 206 -192 1
w 207 -206 192 0
w 207 -206 -192 1
w 208 207 193 0
w 208 207 -193 0
w 208 -207 193 1
w 208 -207 -193 1
w 209 208 194 0
w 209 208 -194 0
w 209 -208 194 0
w 209 -208 -194 1
w 210 209 195 1
w 210 209 -195 1
w 210 -209 195 0
w 210 -209 -195 1
w 211 196 0
w 211 -196 1
w 212 211 197 1
w 212 211 -197 1
w 212 -211 197 0
w 212 -211 -197 1
w 213 212 198 0.0595345
w 213 212 -198 0.390185
w 213 -212 198 0.572015
w 213 -212 -198 0.222202
w 214 213 199 1
w 214 213 -199 0
w 214 -213 199 0
w 214 -213 -199 0
w 215 214 200 0.155047
w 215 214 -200 0.950993
w 215 -214 200 0.476626
w 215 -214 -200 0.503497
w 216 215 201 1
w 216 215 -201 0
w 216 -215 201 0
w 216 -215 -201 1
w 217 216 202 0
w 217 216 -202 1
w 217 -216 202 0
w 217 -216 -202 0
w 218 217 203 0.59458
w 218 217 -203 0.306581
w 218 -217 203 0.289903
w 218 -217 -203 0.293063
w 219 218 204 1
w 219 218 -204 1
w 219 -218 204 0
w 219 -218 -204 1
w 220 219 205 0.727361
w 220 219 -205 0.91802
w 220 -219 205 0.462012
w 220 -219 -205 0.478348
w 221 220 206 0
w 221 220 -206 1
w 221 -220 206 0
w 221 -220 -206 0
w 222 221 207 1
w 222 221 -207 1
w 222 -221 207 1
w 222 -221 -207 0
w 223 222 208 0
w 223 222 -208 0
w 223 -222 208 1
w 223 -222 -208 0
w 224 223 209 1
w 224 223 -209 1
w 224 -223 209 0
w 224 -223 -209 1
w 225 224 210 0
w 225 224 -210 1
w 225 -224 210 1
w 225 -224 -210 0